c Command line: hgen8 210 70
p cnf 210 324
93 4 124 13 0
172 22 135 100 0
33 40 177 208 0
202 155 116 112 0
196 132 49 104 0
47 111 178 200 0
195 82 123 52 0
75 181 197 41 0
120 64 175 80 0
182 109 44 138 0
39 89 188 90 0
127 131 48 56 0
209 58 27 168 0
126 29 166 130 0
162 189 26 91 0
118 151 96 46 0
149 76 145 25 0
154 35 62 140 0
15 95 139 36 0
11 117 137 65 0
9 7 167 121 0
69 186 67 66 0
174 78 105 54 0
113 161 164 129 0
187 1 94 71 0
28 68 23 198 0
61 86 203 190 0
134 32 128 72 0
79 193 107 14 0
10 169 158 37 0
5 183 81 63 0
204 85 20 2 0
106 171 101 207 0
21 102 31 150 0
210 43 199 51 0
192 60 6 141 0
136 12 148 170 0
57 30 50 180 0
87 59 160 8 0
34 205 103 17 0
115 185 98 144 0
70 108 74 97 0
143 163 153 88 0
-1 -2 0
-1 -4 0
-1 -5 0
-2 -4 0
-2 -5 0
-4 -5 0
-6 -7 0
-6 -8 0
-6 -9 0
-6 -10 0
-7 -8 0
-7 -9 0
-7 -10 0
-8 -9 0
-8 -10 0
-9 -10 0
-11 -12 0
-11 -13 0
-11 -14 0
-11 -15 0
-12 -13 0
-12 -14 0
-12 -15 0
-13 -14 0
-13 -15 0
-14 -15 0
-17 -20 0
-21 -22 0
-21 -23 0
-21 -25 0
-22 -23 0
-22 -25 0
-23 -25 0
-26 -27 0
-26 -28 0
-26 -29 0
-26 -30 0
-27 -28 0
-27 -29 0
-27 -30 0
-28 -29 0
-28 -30 0
-29 -30 0
-31 -32 0
-31 -33 0
-31 -34 0
-31 -35 0
-32 -33 0
-32 -34 0
-32 -35 0
-33 -34 0
-33 -35 0
-34 -35 0
-36 -37 0
-36 -39 0
-36 -40 0
-37 -39 0
-37 -40 0
-39 -40 0
-41 -43 0
-41 -44 0
-43 -44 0
-46 -47 0
-46 -48 0
-46 -49 0
-46 -50 0
-47 -48 0
-47 -49 0
-47 -50 0
-48 -49 0
-48 -50 0
-49 -50 0
-51 -52 0
-51 -54 0
-52 -54 0
-56 -57 0
-56 -58 0
-56 -59 0
-56 -60 0
-57 -58 0
-57 -59 0
-57 -60 0
-58 -59 0
-58 -60 0
-59 -60 0
-61 -62 0
-61 -63 0
-61 -64 0
-61 -65 0
-62 -63 0
-62 -64 0
-62 -65 0
-63 -64 0
-63 -65 0
-64 -65 0
-66 -67 0
-66 -68 0
-66 -69 0
-66 -70 0
-67 -68 0
-67 -69 0
-67 -70 0
-68 -69 0
-68 -70 0
-69 -70 0
-71 -72 0
-71 -74 0
-71 -75 0
-72 -74 0
-72 -75 0
-74 -75 0
-76 -78 0
-76 -79 0
-76 -80 0
-78 -79 0
-78 -80 0
-79 -80 0
-81 -82 0
-81 -85 0
-82 -85 0
-86 -87 0
-86 -88 0
-86 -89 0
-86 -90 0
-87 -88 0
-87 -89 0
-87 -90 0
-88 -89 0
-88 -90 0
-89 -90 0
-91 -93 0
-91 -94 0
-91 -95 0
-93 -94 0
-93 -95 0
-94 -95 0
-96 -97 0
-96 -98 0
-96 -100 0
-97 -98 0
-97 -100 0
-98 -100 0
-101 -102 0
-101 -103 0
-101 -104 0
-101 -105 0
-102 -103 0
-102 -104 0
-102 -105 0
-103 -104 0
-103 -105 0
-104 -105 0
-106 -107 0
-106 -108 0
-106 -109 0
-107 -108 0
-107 -109 0
-108 -109 0
-111 -112 0
-111 -113 0
-111 -115 0
-112 -113 0
-112 -115 0
-113 -115 0
-116 -117 0
-116 -118 0
-116 -120 0
-117 -118 0
-117 -120 0
-118 -120 0
-121 -123 0
-121 -124 0
-123 -124 0
-126 -127 0
-126 -128 0
-126 -129 0
-126 -130 0
-127 -128 0
-127 -129 0
-127 -130 0
-128 -129 0
-128 -130 0
-129 -130 0
-131 -132 0
-131 -134 0
-131 -135 0
-132 -134 0
-132 -135 0
-134 -135 0
-136 -137 0
-136 -138 0
-136 -139 0
-136 -140 0
-137 -138 0
-137 -139 0
-137 -140 0
-138 -139 0
-138 -140 0
-139 -140 0
-141 -143 0
-141 -144 0
-141 -145 0
-143 -144 0
-143 -145 0
-144 -145 0
-148 -149 0
-148 -150 0
-149 -150 0
-151 -153 0
-151 -154 0
-151 -155 0
-153 -154 0
-153 -155 0
-154 -155 0
-158 -160 0
-161 -162 0
-161 -163 0
-161 -164 0
-162 -163 0
-162 -164 0
-163 -164 0
-166 -167 0
-166 -168 0
-166 -169 0
-166 -170 0
-167 -168 0
-167 -169 0
-167 -170 0
-168 -169 0
-168 -170 0
-169 -170 0
-171 -172 0
-171 -174 0
-171 -175 0
-172 -174 0
-172 -175 0
-174 -175 0
-177 -178 0
-177 -180 0
-178 -180 0
-181 -182 0
-181 -183 0
-181 -185 0
-182 -183 0
-182 -185 0
-183 -185 0
-186 -187 0
-186 -188 0
-186 -189 0
-186 -190 0
-187 -188 0
-187 -189 0
-187 -190 0
-188 -189 0
-188 -190 0
-189 -190 0
-192 -193 0
-192 -195 0
-193 -195 0
-196 -197 0
-196 -198 0
-196 -199 0
-196 -200 0
-197 -198 0
-197 -199 0
-197 -200 0
-198 -199 0
-198 -200 0
-199 -200 0
-202 -203 0
-202 -204 0
-202 -205 0
-203 -204 0
-203 -205 0
-204 -205 0
-207 -208 0
-207 -209 0
-207 -210 0
-208 -209 0
-208 -210 0
-209 -210 0
